Version identifier: 20.1.0.0 | 2020-11-10 | 9bedb6d68
Tried aggregator 2 times.
MIP Presolve eliminated 1886 rows and 1027 columns.
MIP Presolve modified 4710 coefficients.
Aggregator did 188 substitutions.
Reduced MIP has 2735 rows, 2100 columns, and 8978 nonzeros.
Reduced MIP has 355 binaries, 1745 generals, 0 SOSs, and 0 indicators.
Presolve time = 0.03 sec. (10.66 ticks)
Found incumbent of value 4062.000000 after 0.05 sec. (22.22 ticks)
Probing fixed 60 vars, tightened 677 bounds.
Probing time = 0.00 sec. (2.01 ticks)
Tried aggregator 1 time.
Detecting symmetries...
MIP Presolve eliminated 1170 rows and 60 columns.
MIP Presolve modified 125 coefficients.
Reduced MIP has 1565 rows, 2040 columns, and 5108 nonzeros.
Reduced MIP has 515 binaries, 1525 generals, 0 SOSs, and 0 indicators.
Presolve time = 0.01 sec. (5.79 ticks)
Probing time = 0.00 sec. (0.38 ticks)
Clique table members: 5.
MIP emphasis: balance optimality and feasibility.
MIP search method: dynamic search.
Parallel mode: deterministic, using up to 24 threads.
Root relaxation solution time = 0.01 sec. (4.44 ticks)

        Nodes                                         Cuts/
   Node  Left     Objective  IInf  Best Integer    Best Bound    ItCnt     Gap

*     0+    0                         4062.0000        0.0000           100.00%
      0     0        0.0000    71     4062.0000        0.0000      454  100.00%
*     0+    0                           11.0000        0.0000           100.00%
      0     0        0.0000    83       11.0000     Cuts: 160      559  100.00%
*     0+    0                            7.0000        0.0000           100.00%
      0     0        cutoff              7.0000        7.0000      716    0.00%
Elapsed time = 1.44 sec. (97.99 ticks, tree = 0.01 MB, solutions = 3)

Implied bound cuts applied:  62
Flow cuts applied:  6
Mixed integer rounding cuts applied:  13
Zero-half cuts applied:  100
Lift and project cuts applied:  17
Gomory fractional cuts applied:  39

Root node processing (before b&c):
  Real time             =    1.45 sec. (98.16 ticks)
Parallel b&c, 24 threads:
  Real time             =    0.00 sec. (0.00 ticks)
  Sync time (average)   =    0.00 sec.
  Wait time (average)   =    0.00 sec.
                          ------------
Total (root+branch&cut) =    1.45 sec. (98.16 ticks)

Solution status = Optimal
Solution LB = 7
Solution UB = 7
Runtime = 1.45093 seconds
	Command being timed: "/home/min/git_repos/CS598MEBProject/CNT-ILP/build/cnt -s 2 ./output/k8_n30/simC_c1_k8_n30_u1_s3_del02.input-left.cnp"
	User time (seconds): 22.05
	System time (seconds): 0.18
	Percent of CPU this job got: 1498%
	Elapsed (wall clock) time (h:mm:ss or m:ss): 0:01.48
	Average shared text size (kbytes): 0
	Average unshared data size (kbytes): 0
	Average stack size (kbytes): 0
	Average total size (kbytes): 0
	Maximum resident set size (kbytes): 114036
	Average resident set size (kbytes): 0
	Major (requiring I/O) page faults: 0
	Minor (reclaiming a frame) page faults: 34406
	Voluntary context switches: 6746
	Involuntary context switches: 2943
	Swaps: 0
	File system inputs: 0
	File system outputs: 16
	Socket messages sent: 0
	Socket messages received: 0
	Signals delivered: 0
	Page size (bytes): 4096
	Exit status: 0
